
Gurobi 10.0.1 (linux64) logging started Sat 15 Jul 2023 05:05:36 AM CDT

Set parameter LogFile to value "/home/dlcole3/graph_abstraction/plasmoexamples/SHP_serial/SHP_reserve_requirements/gurobi_logs/logfile12.log"
Set parameter NodefileStart to value 0.0005
Set parameter TimeLimit to value 36000
Gurobi Optimizer version 10.0.1 build v10.0.1rc0 (linux64)

CPU model: Intel(R) Xeon(R) CPU E5-2698 v4 @ 2.20GHz, instruction set [SSE2|AVX|AVX2]
Thread count: 40 physical cores, 80 logical processors, using up to 8 threads


Warning: excessive time spent in model updates.
Consider calling update less frequently.

Optimize a model with 1103654 rows, 641709 columns and 4636589 nonzeros
Model fingerprint: 0x2f3f6d7f
Variable types: 599982 continuous, 41727 integer (41727 binary)
Coefficient statistics:
  Matrix range     [5e-02, 2e+04]
  Objective range  [2e-01, 8e+04]
  Bounds range     [5e-02, 2e+04]
  RHS range        [1e-02, 7e+03]
Presolve removed 262319 rows and 118098 columns (presolve time = 5s) ...
Presolve removed 276062 rows and 124934 columns (presolve time = 10s) ...
Presolve removed 278028 rows and 127963 columns (presolve time = 15s) ...
Presolve removed 286789 rows and 132498 columns (presolve time = 20s) ...
Presolve removed 291323 rows and 133395 columns (presolve time = 25s) ...
Presolve removed 291333 rows and 133405 columns (presolve time = 30s) ...
Presolve removed 291373 rows and 133445 columns (presolve time = 35s) ...
Presolve removed 291673 rows and 133465 columns (presolve time = 40s) ...
Sparsify removed 201978 nonzeros (5%)
Presolve removed 291673 rows and 191561 columns (presolve time = 45s) ...
Presolve removed 291673 rows and 131685 columns
Presolve time: 45.91s
Presolved: 811981 rows, 510024 columns, 3963961 nonzeros
Variable types: 476317 continuous, 33707 integer (33642 binary)

Deterministic concurrent LP optimizer: primal simplex, dual simplex, and barrier
Showing barrier log only...

Root barrier log...

Elapsed ordering time = 5s
Elapsed ordering time = 19s
Elapsed ordering time = 21s
Elapsed ordering time = 25s
Elapsed ordering time = 30s
Elapsed ordering time = 33s
Elapsed ordering time = 36s
Elapsed ordering time = 40s
Elapsed ordering time = 45s
Elapsed ordering time = 47s
Elapsed ordering time = 50s
Elapsed ordering time = 55s
Elapsed ordering time = 60s
Elapsed ordering time = 65s
Ordering time: 72.72s

Barrier statistics:
 Dense cols : 211
 AA' NZ     : 2.385e+07
 Factor NZ  : 3.623e+08 (roughly 3.4 GB of memory)
 Factor Ops : 1.690e+12 (roughly 20 seconds per iteration)
 Threads    : 5

                  Objective                Residual
Iter       Primal          Dual         Primal    Dual     Compl     Time
   0  -2.13211413e+11 -1.80176743e+13  1.24e+04 1.62e+05  1.16e+08   144s
   1  -1.48552723e+11 -1.33078155e+13  8.75e+03 2.37e+06  7.31e+07   155s
   2  -1.04961353e+11 -8.33372539e+12  6.27e+03 4.20e+05  4.66e+07   170s
   3  -3.02082850e+10 -3.63150514e+12  1.97e+03 8.15e+00  1.40e+07   185s
   4  -8.34981450e+09 -1.76774161e+12  7.18e+02 1.27e+00  5.01e+06   201s
   5   1.45881468e+09 -8.37181449e+11  1.94e+02 4.43e-01  1.43e+06   217s
   6   3.88221542e+09 -3.43353807e+11  7.27e+01 4.00e-01  4.61e+05   234s
   7   4.50359015e+09 -1.38318620e+11  2.04e+01 6.16e-02  1.33e+05   251s
   8   2.91174283e+09 -4.28775894e+10  5.61e+00 5.24e-03  3.44e+04   269s
   9   9.92920287e+08 -1.55020616e+10  1.71e+00 1.54e-03  1.09e+04   286s
  10   2.12647075e+08 -3.00561691e+09  2.16e-01 1.11e-03  1.95e+03   305s
  11   8.30050677e+07 -3.17551323e+08  7.68e-03 7.32e-05  2.36e+02   324s
  12   5.92051510e+07 -2.57870520e+07  5.94e-04 2.30e-04  5.00e+01   343s
  13   5.10912427e+07  1.37914608e+07  2.44e-04 2.39e-03  2.19e+01   360s
  14   4.79087684e+07  2.42477856e+07  1.36e-04 1.60e-03  1.39e+01   377s
  15   4.48951864e+07  3.48072623e+07  5.78e-05 6.60e-04  5.93e+00   396s
  16   4.30882200e+07  3.82952650e+07  2.36e-05 3.17e-04  2.82e+00   413s
  17   4.22383036e+07  4.00229812e+07  1.11e-05 1.45e-04  1.30e+00   430s
  18   4.19046309e+07  4.06406715e+07  6.85e-06 7.76e-05  7.43e-01   447s
  19   4.17349358e+07  4.10339392e+07  4.73e-06 3.61e-05  4.12e-01   463s
  20   4.16572516e+07  4.11247854e+07  3.97e-06 2.59e-05  3.13e-01   479s
  21   4.15160112e+07  4.11572861e+07  2.37e-06 2.18e-05  2.11e-01   494s
  22   4.14490588e+07  4.11992987e+07  1.53e-06 1.70e-05  1.47e-01   509s
  23   4.14009086e+07  4.12694496e+07  9.40e-07 5.52e-06  7.73e-02   525s
  24   4.13697246e+07  4.12873519e+07  5.76e-07 3.49e-06  4.85e-02   541s
  25   4.13501856e+07  4.12939080e+07  1.04e-06 2.76e-06  3.31e-02   560s
  26   4.13357080e+07  4.13056178e+07  6.14e-07 1.48e-06  1.77e-02   578s
  27   4.13316805e+07  4.13109028e+07  1.05e-06 9.05e-07  1.22e-02   598s
  28   4.13248301e+07  4.13157941e+07  4.91e-07 4.01e-07  5.32e-03   617s
  29   4.13214879e+07  4.13191018e+07  1.94e-07 7.58e-08  1.40e-03   636s
  30   4.13199581e+07  4.13198722e+07  6.90e-08 3.88e-09  5.05e-05   655s
  31   4.13199059e+07  4.13199000e+07  4.07e-08 7.99e-09  3.49e-06   676s
  32   4.13199047e+07  4.13199047e+07  9.29e-07 1.06e-07  3.87e-08   692s
  33   4.13199047e+07  4.13199047e+07  1.14e-07 1.08e-07  3.87e-11   707s

Barrier solved model in 33 iterations and 707.34 seconds (595.48 work units)
Optimal objective 4.13199047e+07


Root crossover log...

  327866 DPushes remaining with DInf 0.0000000e+00               709s
  110058 DPushes remaining with DInf 0.0000000e+00               713s
   71429 DPushes remaining with DInf 0.0000000e+00               715s
   29476 DPushes remaining with DInf 0.0000000e+00               721s
   15142 DPushes remaining with DInf 0.0000000e+00               725s
    5947 DPushes remaining with DInf 0.0000000e+00               730s
       0 DPushes remaining with DInf 0.0000000e+00               734s

   16847 PPushes remaining with PInf 0.0000000e+00               734s
   10234 PPushes remaining with PInf 0.0000000e+00               735s
       0 PPushes remaining with PInf 0.0000000e+00               741s

  Push phase complete: Pinf 0.0000000e+00, Dinf 4.8795007e-07    741s


Root simplex log...

Iteration    Objective       Primal Inf.    Dual Inf.      Time
  153585    4.1319905e+07   0.000000e+00   0.000000e+00    742s
  153585    4.1319905e+07   0.000000e+00   0.000000e+00    744s
Concurrent spin time: 28.45s

Solved with barrier

Root relaxation: objective 4.131990e+07, 153585 iterations, 721.45 seconds (576.37 work units)
Total elapsed time = 779.56s
Total elapsed time = 783.06s

    Nodes    |    Current Node    |     Objective Bounds      |     Work
 Expl Unexpl |  Obj  Depth IntInf | Incumbent    BestBd   Gap | It/Node Time

     0     0 4.1320e+07    0  214          - 4.1320e+07      -     -  791s
H    0     0                    4.157176e+07 4.1320e+07  0.61%     -  802s

Explored 1 nodes (153692 simplex iterations) in 802.96 seconds (641.88 work units)
Thread count was 8 (of 80 available processors)

Solution count 2: 4.15718e+07 4.15718e+07 

Optimal solution found (tolerance 1.00e-01)
Best objective 4.157175697997e+07, best bound 4.131990466375e+07, gap 0.6058%

User-callback calls 62105, time in user-callback 0.23 sec
